
     Program PWSCF v.7.4.1 starts on 22Oct2025 at 21: 6: 9 

     This program is part of the open-source Quantum ESPRESSO suite
     for quantum simulation of materials; please cite
         "P. Giannozzi et al., J. Phys.:Condens. Matter 21 395502 (2009);
         "P. Giannozzi et al., J. Phys.:Condens. Matter 29 465901 (2017);
         "P. Giannozzi et al., J. Chem. Phys. 152 154105 (2020);
          URL http://www.quantum-espresso.org", 
     in publications or presentations arising from this work. More details at
     http://www.quantum-espresso.org/quote

     Parallel version (MPI), running on     1 processors

     MPI processes distributed on     1 nodes
     0 MiB available memory on the printing compute node when the environment starts

     Reading input from espresso.pwi
Warning: card &CELL ignored
Warning: card / ignored
Warning: card &FCP ignored
Warning: card / ignored
Warning: card &RISM ignored
Warning: card / ignored

     Current dimensions of program PWSCF are:
     Max number of different atomic species (ntypx) = 10
     Max number of k-points (npk) =  40000
     Max angular momentum in pseudopotentials (lmaxx) =  4

     IMPORTANT: XC functional enforced from input :
     Exchange-correlation= PBE
                           (   1   4   3   4   0   0   0)
     Any further DFT definition will be discarded
     Please, verify this is what you really want

     Message from routine setup:
     using ibrav=0 with symmetry is DISCOURAGED, use correct ibrav instead

     Subspace diagonalization in iterative solution of the eigenvalue problem:
     a serial algorithm will be used


     G-vector sticks info
     --------------------
     sticks:   dense  smooth     PW     G-vecs:    dense   smooth      PW
     Sum        1871     931    313                26497     9467    1847

     Using Slab Decomposition



     bravais-lattice index     =            0
     lattice parameter (alat)  =       9.4071  a.u.
     unit-cell volume          =     294.3233 (a.u.)^3
     number of atoms/cell      =            4
     number of atomic types    =            4
     number of electrons       =        18.00
     number of Kohn-Sham states=           13
     kinetic-energy cutoff     =      38.2193  Ry
     charge density cutoff     =     305.7542  Ry
     scf convergence threshold =      1.0E-06
     mixing beta               =       0.3000
     number of iterations used =            8  plain     mixing
     Exchange-correlation= PBE
                           (   1   4   3   4   0   0   0)

     celldm(1)=   9.407117  celldm(2)=   0.000000  celldm(3)=   0.000000
     celldm(4)=   0.000000  celldm(5)=   0.000000  celldm(6)=   0.000000

     crystal axes: (cart. coord. in units of alat)
               a(1) = (   1.000000   0.000000   0.000000 )  
               a(2) = (   0.500000   0.866025   0.000000 )  
               a(3) = (   0.250000   0.144338   0.408248 )  

     reciprocal axes: (cart. coord. in units 2 pi/alat)
               b(1) = (  1.000000 -0.577350 -0.408248 )  
               b(2) = (  0.000000  1.154701 -0.408248 )  
               b(3) = (  0.000000  0.000000  2.449490 )  


     PseudoPot. # 1 for    read from file:
     /Users/omtailor/qe/pseudos/SSSP_PBE/Al.pbe-n-kjpaw_psl.1.0.0.UPF
     MD5 check sum: cfc449ca30b5f3223ec38ddd88ac046d
     Pseudo is Norm-conserving, Zval =  0.0
     
     Using radial grid of    0 points,  0 beta functions with: 

     PseudoPot. # 2 for    read from file:
     /Users/omtailor/qe/pseudos/SSSP_PBE/Pm.paw.z_15.atompaw.wentzcovitch.v1.2.upf
     MD5 check sum: 73dcdc0c9fe91f97d1fdb9924a622ccb
     Pseudo is Norm-conserving, Zval =  0.0
     
     Using radial grid of    0 points,  0 beta functions with: 

     PseudoPot. # 3 for    read from file:
     /Users/omtailor/qe/pseudos/SSSP_PBE/Fe.pbe-spn-kjpaw_psl.0.2.1.UPF
     MD5 check sum: e86618425769142926afa95317d90200
     Pseudo is Norm-conserving, Zval =  0.0
     
     Using radial grid of    0 points,  0 beta functions with: 

     PseudoPot. # 4 for Ni read from file:
     /Users/omtailor/qe/pseudos/SSSP_PBE/ni_pbe_v1.4.uspp.F.UPF
     MD5 check sum: 1ee80287db30b12d2bc1f57a5b5d6409
     Pseudo is Ultrasoft + core correction, Zval = 18.0
     Generated by new atomic code, or converted to UPF format
     Using radial grid of  865 points,  6 beta functions with: 
                l(1) =   0
                l(2) =   0
                l(3) =   1
                l(4) =   1
                l(5) =   2
                l(6) =   2
     Q(r) pseudized with 10 coefficients,  rinner =    0.980   0.980   0.980
                                                       0.980   0.980

     atomic species   valence    mass     pseudopotential
     Al                0.00    26.98154       ( 1.00)
     Co                0.00    58.93319       ( 1.00)
     Fe                0.00    55.84500       ( 1.00)
     Ni               18.00    58.69340     Ni( 1.00)

      2 Sym. Ops., with inversion, found



   Cartesian axes

     site n.     atom                  positions (alat units)
         1        Al     tau(   1) = (   0.0000000   0.0000000   0.0000000  )
         2        Co     tau(   2) = (   0.2500000   0.4330127   0.0000000  )
         3        Fe     tau(   3) = (   0.5000000   0.0000000   0.0000000  )
         4        Ni     tau(   4) = (   0.7500000   0.4330127   0.0000000  )

     number of k points=    36  Marzari-Vanderbilt smearing, width (Ry)=  0.0147
                       cart. coord. in units 2pi/alat
        k(    1) = (   0.0000000   0.0000000   0.0000000), wk =   0.0312500
        k(    2) = (   0.0000000   0.0000000   0.6123724), wk =   0.0625000
        k(    3) = (   0.0000000   0.0000000  -1.2247449), wk =   0.0312500
        k(    4) = (   0.0000000   0.2886751  -0.1020621), wk =   0.0625000
        k(    5) = (   0.0000000   0.2886751   0.5103104), wk =   0.0625000
        k(    6) = (   0.0000000   0.2886751  -1.3268069), wk =   0.0625000
        k(    7) = (   0.0000000   0.2886751  -0.7144345), wk =   0.0625000
        k(    8) = (   0.0000000  -0.5773503   0.2041241), wk =   0.0312500
        k(    9) = (   0.0000000  -0.5773503   0.8164966), wk =   0.0625000
        k(   10) = (   0.0000000  -0.5773503  -1.0206207), wk =   0.0312500
        k(   11) = (   0.2500000   0.1443376  -0.2041241), wk =   0.0625000
        k(   12) = (   0.2500000   0.1443376   0.4082483), wk =   0.0625000
        k(   13) = (   0.2500000   0.1443376  -1.4288690), wk =   0.0625000
        k(   14) = (   0.2500000   0.1443376  -0.8164966), wk =   0.0625000
        k(   15) = (   0.2500000  -0.7216878   0.1020621), wk =   0.0625000
        k(   16) = (   0.2500000  -0.7216878   0.7144345), wk =   0.0625000
        k(   17) = (   0.2500000  -0.7216878  -1.1226828), wk =   0.0625000
        k(   18) = (   0.2500000  -0.7216878  -0.5103104), wk =   0.0625000
        k(   19) = (   0.2500000  -0.4330127   0.0000000), wk =   0.0625000
        k(   20) = (   0.2500000  -0.4330127   0.6123724), wk =   0.0625000
        k(   21) = (   0.2500000  -0.4330127  -1.2247449), wk =   0.0625000
        k(   22) = (  -0.5000000  -0.2886751   0.4082483), wk =   0.0312500
        k(   23) = (  -0.5000000  -0.2886751   1.0206207), wk =   0.0625000
        k(   24) = (  -0.5000000  -0.2886751  -0.8164966), wk =   0.0312500
        k(   25) = (  -0.2500000   0.1443376   0.1020621), wk =   0.0625000
        k(   26) = (  -0.2500000   0.1443376  -0.5103104), wk =   0.0625000
        k(   27) = (  -0.2500000   0.1443376   1.3268069), wk =   0.0625000
        k(   28) = (  -0.2500000   0.1443376   0.7144345), wk =   0.0625000
        k(   29) = (   0.5000000  -0.2886751  -0.2041241), wk =   0.0312500
        k(   30) = (   0.5000000  -0.2886751  -0.8164966), wk =   0.0625000
        k(   31) = (   0.5000000  -0.2886751   1.0206207), wk =   0.0312500
        k(   32) = (   0.5000000  -0.5773503  -0.1020621), wk =   0.0625000
        k(   33) = (   0.5000000  -0.5773503  -0.7144345), wk =   0.0625000
        k(   34) = (   0.5000000  -0.5773503   1.1226828), wk =   0.0625000
        k(   35) = (   0.5000000  -0.5773503   0.5103104), wk =   0.0625000
        k(   36) = (   0.2500000  -0.4330127  -0.6123724), wk =   0.0625000

     Dense  grid:    26497 G-vectors     FFT dimensions: (  54,  54,  27)

     Smooth grid:     9467 G-vectors     FFT dimensions: (  40,  40,  20)

     Estimated max dynamical RAM per process >     114.54 MB

     Check: negative core charge=   -0.000008

     Initial potential from superposition of free atoms

     starting charge      16.0000, renormalised to      18.0000
     Starting wfcs are   13 randomized atomic wfcs

     total cpu time spent up to now is        0.7 secs

     Self-consistent Calculation

     iteration #  1     ecut=    38.22 Ry     beta= 0.30
     Davidson diagonalization with overlap
     ethr =  1.00E-02,  avg # of iterations =  7.1

     total cpu time spent up to now is        1.8 secs

     total energy              =    -325.94638756 Ry
     estimated scf accuracy    <      67.05226786 Ry

     iteration #  2     ecut=    38.22 Ry     beta= 0.30
     Davidson diagonalization with overlap
     ethr =  1.00E-02,  avg # of iterations =  4.7

     total cpu time spent up to now is        2.6 secs

     total energy              =    -343.09422081 Ry
     estimated scf accuracy    <       9.53791789 Ry

     iteration #  3     ecut=    38.22 Ry     beta= 0.30
     Davidson diagonalization with overlap
     ethr =  1.00E-02,  avg # of iterations =  2.1

     total cpu time spent up to now is        3.2 secs

     total energy              =    -343.15844908 Ry
     estimated scf accuracy    <       2.43695274 Ry

     iteration #  4     ecut=    38.22 Ry     beta= 0.30
     Davidson diagonalization with overlap
     ethr =  1.00E-02,  avg # of iterations =  1.2

     total cpu time spent up to now is        3.6 secs

     WARNING: integrated charge=    17.99739129, expected=    18.00000000

     total energy              =    -343.22729802 Ry
     estimated scf accuracy    <       0.93040099 Ry

     iteration #  5     ecut=    38.22 Ry     beta= 0.30
     Davidson diagonalization with overlap
     ethr =  5.17E-03,  avg # of iterations =  1.1

     total cpu time spent up to now is        4.1 secs

     WARNING: integrated charge=    17.99665461, expected=    18.00000000

     total energy              =    -343.27363929 Ry
     estimated scf accuracy    <       0.61387374 Ry

     iteration #  6     ecut=    38.22 Ry     beta= 0.30
     Davidson diagonalization with overlap
     ethr =  3.41E-03,  avg # of iterations =  1.1

     total cpu time spent up to now is        4.6 secs

     WARNING: integrated charge=    17.99687834, expected=    18.00000000

     total energy              =    -343.26828236 Ry
     estimated scf accuracy    <       0.67412345 Ry

     iteration #  7     ecut=    38.22 Ry     beta= 0.30
     Davidson diagonalization with overlap
     ethr =  3.41E-03,  avg # of iterations =  1.1

     total cpu time spent up to now is        5.0 secs

     WARNING: integrated charge=    17.99800044, expected=    18.00000000

     total energy              =    -343.22884366 Ry
     estimated scf accuracy    <       0.65967510 Ry

     iteration #  8     ecut=    38.22 Ry     beta= 0.30
     Davidson diagonalization with overlap
     ethr =  3.41E-03,  avg # of iterations =  1.2

     total cpu time spent up to now is        5.5 secs

     WARNING: integrated charge=    18.00116972, expected=    18.00000000

     total energy              =    -343.11603082 Ry
     estimated scf accuracy    <       0.55731852 Ry

     iteration #  9     ecut=    38.22 Ry     beta= 0.30
     Davidson diagonalization with overlap
     ethr =  3.10E-03,  avg # of iterations =  1.3

     total cpu time spent up to now is        6.0 secs

     WARNING: integrated charge=    18.00062524, expected=    18.00000000

     total energy              =    -343.14014542 Ry
     estimated scf accuracy    <       0.23673911 Ry

     iteration # 10     ecut=    38.22 Ry     beta= 0.30
     Davidson diagonalization with overlap
     ethr =  1.32E-03,  avg # of iterations =  1.1

     total cpu time spent up to now is        6.4 secs

     WARNING: integrated charge=    18.01197395, expected=    18.00000000

     total energy              =    -342.99698010 Ry
     estimated scf accuracy    <       0.26782160 Ry

     iteration # 11     ecut=    38.22 Ry     beta= 0.30
     Davidson diagonalization with overlap
     ethr =  1.32E-03,  avg # of iterations =  2.0

     total cpu time spent up to now is        7.0 secs

     WARNING: integrated charge=    18.00906910, expected=    18.00000000

     total energy              =    -342.95379599 Ry
     estimated scf accuracy    <       1.57860135 Ry

     iteration # 12     ecut=    38.22 Ry     beta= 0.30
     Davidson diagonalization with overlap
     ethr =  1.32E-03,  avg # of iterations =  2.0

     total cpu time spent up to now is        7.6 secs

     WARNING: integrated charge=    18.00557977, expected=    18.00000000

     total energy              =    -343.03679727 Ry
     estimated scf accuracy    <       0.08543784 Ry

     iteration # 13     ecut=    38.22 Ry     beta= 0.30
     Davidson diagonalization with overlap
     ethr =  4.75E-04,  avg # of iterations =  1.2

     total cpu time spent up to now is        8.0 secs

     WARNING: integrated charge=    18.00228780, expected=    18.00000000

     total energy              =    -343.04165268 Ry
     estimated scf accuracy    <       0.01653929 Ry

     iteration # 14     ecut=    38.22 Ry     beta= 0.30
     Davidson diagonalization with overlap
     ethr =  9.19E-05,  avg # of iterations =  1.0

     total cpu time spent up to now is        8.5 secs

     WARNING: integrated charge=    18.00189391, expected=    18.00000000

     total energy              =    -343.04211443 Ry
     estimated scf accuracy    <       0.00684901 Ry

     iteration # 15     ecut=    38.22 Ry     beta= 0.30
     Davidson diagonalization with overlap
     ethr =  3.81E-05,  avg # of iterations =  1.1

     total cpu time spent up to now is        9.0 secs

     WARNING: integrated charge=    18.00191499, expected=    18.00000000

     total energy              =    -343.04218705 Ry
     estimated scf accuracy    <       0.00343857 Ry

     iteration # 16     ecut=    38.22 Ry     beta= 0.30
     Davidson diagonalization with overlap
     ethr =  1.91E-05,  avg # of iterations =  1.1

     total cpu time spent up to now is        9.4 secs

     WARNING: integrated charge=    18.00034657, expected=    18.00000000

     total energy              =    -343.04237427 Ry
     estimated scf accuracy    <       0.00589427 Ry

     iteration # 17     ecut=    38.22 Ry     beta= 0.30
     Davidson diagonalization with overlap
     ethr =  1.91E-05,  avg # of iterations =  1.0

     total cpu time spent up to now is        9.9 secs

     WARNING: integrated charge=    17.99970556, expected=    18.00000000

     total energy              =    -343.04240390 Ry
     estimated scf accuracy    <       0.00272084 Ry

     iteration # 18     ecut=    38.22 Ry     beta= 0.30
     Davidson diagonalization with overlap
     ethr =  1.51E-05,  avg # of iterations =  1.0

     total cpu time spent up to now is       10.3 secs

     WARNING: integrated charge=    18.00055941, expected=    18.00000000

     total energy              =    -343.04207467 Ry
     estimated scf accuracy    <       0.00156902 Ry

     iteration # 19     ecut=    38.22 Ry     beta= 0.30
     Davidson diagonalization with overlap
     ethr =  8.72E-06,  avg # of iterations =  1.0

     total cpu time spent up to now is       10.8 secs

     WARNING: integrated charge=    18.00024922, expected=    18.00000000

     total energy              =    -343.04219684 Ry
     estimated scf accuracy    <       0.00025546 Ry

     iteration # 20     ecut=    38.22 Ry     beta= 0.30
     Davidson diagonalization with overlap
     ethr =  1.42E-06,  avg # of iterations =  1.4

     total cpu time spent up to now is       11.3 secs

     WARNING: integrated charge=    18.00012221, expected=    18.00000000

     total energy              =    -343.04216439 Ry
     estimated scf accuracy    <       0.00023619 Ry

     iteration # 21     ecut=    38.22 Ry     beta= 0.30
     Davidson diagonalization with overlap
     ethr =  1.31E-06,  avg # of iterations =  1.2

     total cpu time spent up to now is       11.8 secs

     WARNING: integrated charge=    18.00010981, expected=    18.00000000

     total energy              =    -343.04218507 Ry
     estimated scf accuracy    <       0.00000565 Ry

     iteration # 22     ecut=    38.22 Ry     beta= 0.30
     Davidson diagonalization with overlap
     ethr =  3.14E-08,  avg # of iterations =  2.0

     total cpu time spent up to now is       12.3 secs

     End of self-consistent calculation

          k = 0.0000 0.0000 0.0000 (  1189 PWs)   bands (ev):

  -101.3821 -62.1477 -61.5984 -61.5960  -2.3584  -0.6647   0.2485   0.3729
     0.7374   0.7393   6.4299   7.0307   9.1576

          k = 0.0000 0.0000 0.6124 (  1181 PWs)   bands (ev):

  -101.3764 -62.2049 -61.5934 -61.5908  -0.4034  -0.0800   0.0054   0.4333
     0.4895   0.5266   6.4330   7.2110   9.8720

          k = 0.0000 0.0000-1.2247 (  1208 PWs)   bands (ev):

  -101.3708 -62.2622 -61.5886 -61.5858  -0.6057  -0.5576   0.5941   0.6740
     0.7139   4.9625   7.6421   8.2355  10.2318

          k = 0.0000 0.2887-0.1021 (  1180 PWs)   bands (ev):

  -101.3820 -62.1477 -61.5983 -61.5960  -2.1343  -0.4450   0.2789   0.3811
     0.7361   0.7393   4.1094   6.5370   9.6985

          k = 0.0000 0.2887 0.5103 (  1168 PWs)   bands (ev):

  -101.3763 -62.2049 -61.5932 -61.5904  -0.4297  -0.0812   0.0376   0.2524
     0.4959   0.5139   5.8740   8.4859  10.9147

          k = 0.0000 0.2887-1.3268 (  1172 PWs)   bands (ev):

  -101.3706 -62.2615 -61.5880 -61.5852  -0.5921  -0.5418   0.6173   0.6293
     0.7006   4.7542   7.0449   8.6589  10.2303

          k = 0.0000 0.2887-0.7144 (  1178 PWs)   bands (ev):

  -101.3763 -62.2049 -61.5933 -61.5907  -0.3482  -0.0787  -0.0133   0.4568
     0.5004   1.1499   4.7023   6.2765  11.1354

          k = 0.0000-0.5774 0.2041 (  1186 PWs)   bands (ev):

  -101.3821 -62.1479 -61.5988 -61.5960  -1.9210  -0.0716   0.3861   0.5329
     0.7326   0.7382   2.2455   6.3357   9.1398

          k = 0.0000-0.5774 0.8165 (  1173 PWs)   bands (ev):

  -101.3763 -62.2048 -61.5932 -61.5906  -0.3654  -0.0610  -0.0192   0.4710
     0.4907   0.8387   5.2871   5.9585  13.6589

          k = 0.0000-0.5774-1.0206 (  1176 PWs)   bands (ev):

  -101.3706 -62.2618 -61.5880 -61.5854  -0.6016  -0.5101   0.5590   0.6490
     0.6986   4.5676   6.9119   7.9765   9.8344

          k = 0.2500 0.1443-0.2041 (  1173 PWs)   bands (ev):

  -101.3820 -62.1475 -61.5984 -61.5957  -2.0507  -0.3312   0.3180   0.3422
     0.7370   0.7392   4.7038   5.2926   8.4945

          k = 0.2500 0.1443 0.4082 (  1153 PWs)   bands (ev):

  -101.3762 -62.2047 -61.5926 -61.5902  -0.5572  -0.0907   0.0319   0.0463
     0.4217   0.5107   8.4233   9.0179  10.2042

          k = 0.2500 0.1443-1.4289 (  1160 PWs)   bands (ev):

  -101.3705 -62.2614 -61.5878 -61.5851  -0.5525  -0.5338   0.5993   0.6276
     0.6336   4.2929   6.0993  10.8332  10.9602

          k = 0.2500 0.1443-0.8165 (  1184 PWs)   bands (ev):

  -101.3764 -62.2050 -61.5934 -61.5908  -0.3362  -0.0876  -0.0151   0.4087
     0.5630   1.4701   4.4664   6.4925   8.6842

          k = 0.2500-0.7217 0.1021 (  1182 PWs)   bands (ev):

  -101.3821 -62.1478 -61.5987 -61.5960  -1.8559   0.1646   0.2783   0.5332
     0.7329   0.7371   2.8345   4.4767   9.6589

          k = 0.2500-0.7217 0.7144 (  1168 PWs)   bands (ev):

  -101.3763 -62.2049 -61.5931 -61.5905  -0.4296  -0.0808   0.0372   0.2523
     0.4961   0.5139   5.8741   8.4858  10.9147

          k = 0.2500-0.7217-1.1227 (  1164 PWs)   bands (ev):

  -101.3706 -62.2616 -61.5879 -61.5851  -0.5554  -0.5073   0.5471   0.6237
     0.6465   4.1281   5.9546  10.0304  11.1812

          k = 0.2500-0.7217-0.5103 (  1178 PWs)   bands (ev):

  -101.3763 -62.2049 -61.5933 -61.5907  -0.3482  -0.0791  -0.0129   0.4568
     0.5004   1.1498   4.7022   6.2766  11.1354

          k = 0.2500-0.4330 0.0000 (  1177 PWs)   bands (ev):

  -101.3821 -62.1477 -61.5985 -61.5961  -1.9301  -0.0208   0.2864   0.3877
     0.7363   0.7375   3.5327   4.1465  12.5861

          k = 0.2500-0.4330 0.6124 (  1176 PWs)   bands (ev):

  -101.3763 -62.2049 -61.5932 -61.5908  -0.3603  -0.0892   0.0346   0.3436
     0.5265   0.9911   4.1666   8.2980  10.3589

          k = 0.2500-0.4330-1.2247 (  1160 PWs)   bands (ev):

  -101.3705 -62.2613 -61.5876 -61.5852  -0.5623  -0.5457   0.6230   0.6259
     0.6559   4.5504   6.6195   9.5304   9.7725

          k =-0.5000-0.2887 0.4082 (  1196 PWs)   bands (ev):

  -101.3822 -62.1480 -61.5990 -61.5963  -1.7943   0.1779   0.4474   0.7263
     0.7321   0.7340   2.5257   4.5444   7.3708

          k =-0.5000-0.2887 1.0206 (  1181 PWs)   bands (ev):

  -101.3764 -62.2049 -61.5934 -61.5908  -0.4034  -0.0800   0.0054   0.4333
     0.4895   0.5266   6.4330   7.2110   9.8720

          k =-0.5000-0.2887-0.8165 (  1150 PWs)   bands (ev):

  -101.3705 -62.2614 -61.5874 -61.5849  -0.5128  -0.4983   0.4956   0.5902
     0.6461   3.7679   5.5546  12.1327  12.7540

          k =-0.2500 0.1443 0.1021 (  1180 PWs)   bands (ev):

  -101.3820 -62.1477 -61.5984 -61.5959  -2.1343  -0.4449   0.2788   0.3811
     0.7356   0.7398   4.1094   6.5371   9.6985

          k =-0.2500 0.1443-0.5103 (  1168 PWs)   bands (ev):

  -101.3763 -62.2049 -61.5931 -61.5905  -0.4296  -0.0808   0.0372   0.2523
     0.4961   0.5139   5.8741   8.4858  10.9147

          k =-0.2500 0.1443 1.3268 (  1172 PWs)   bands (ev):

  -101.3706 -62.2615 -61.5880 -61.5852  -0.5917  -0.5422   0.6172   0.6289
     0.7010   4.7542   7.0449   8.6589  10.2318

          k =-0.2500 0.1443 0.7144 (  1178 PWs)   bands (ev):

  -101.3763 -62.2049 -61.5933 -61.5907  -0.3482  -0.0791  -0.0129   0.4568
     0.5004   1.1498   4.7022   6.2766  11.1353

          k = 0.5000-0.2887-0.2041 (  1186 PWs)   bands (ev):

  -101.3821 -62.1479 -61.5989 -61.5959  -1.9210  -0.0714   0.3861   0.5326
     0.7321   0.7387   2.2454   6.3357   9.1397

          k = 0.5000-0.2887-0.8165 (  1173 PWs)   bands (ev):

  -101.3763 -62.2048 -61.5932 -61.5906  -0.3654  -0.0610  -0.0192   0.4710
     0.4907   0.8387   5.2871   5.9585  13.6589

          k = 0.5000-0.2887 1.0206 (  1176 PWs)   bands (ev):

  -101.3706 -62.2618 -61.5878 -61.5855  -0.6012  -0.5105   0.5586   0.6490
     0.6991   4.5676   6.9118   7.9765   9.8345

          k = 0.5000-0.5774-0.1021 (  1182 PWs)   bands (ev):

  -101.3821 -62.1478 -61.5988 -61.5959  -1.8559   0.1649   0.2783   0.5330
     0.7324   0.7375   2.8344   4.4768   9.6589

          k = 0.5000-0.5774-0.7144 (  1168 PWs)   bands (ev):

  -101.3763 -62.2049 -61.5932 -61.5904  -0.4297  -0.0812   0.0376   0.2524
     0.4959   0.5139   5.8740   8.4859  10.9147

          k = 0.5000-0.5774 1.1227 (  1164 PWs)   bands (ev):

  -101.3706 -62.2616 -61.5878 -61.5851  -0.5550  -0.5077   0.5468   0.6241
     0.6464   4.1281   5.9546  10.0304  11.1813

          k = 0.5000-0.5774 0.5103 (  1178 PWs)   bands (ev):

  -101.3763 -62.2049 -61.5933 -61.5907  -0.3482  -0.0787  -0.0133   0.4568
     0.5004   1.1499   4.7023   6.2765  11.1354

          k = 0.2500-0.4330-0.6124 (  1176 PWs)   bands (ev):

  -101.3763 -62.2049 -61.5933 -61.5907  -0.3604  -0.0897   0.0351   0.3438
     0.5266   0.9909   4.1665   8.2982  10.3589

     the Fermi energy is     0.7175 ev

!    total energy              =    -343.04218683 Ry
     estimated scf accuracy    <       0.00000068 Ry
     smearing contrib. (-TS)   =       0.00120097 Ry
     internal energy E=F+TS    =    -343.04338780 Ry

     The total energy is F=E-TS. E is the sum of the following terms:
     one-electron contribution =    -365.84134107 Ry
     hartree contribution      =     183.97638591 Ry
     xc contribution           =     -35.33105016 Ry
     ewald contribution        =    -125.84738248 Ry

     convergence has been achieved in  22 iterations

     Forces acting on atoms (cartesian axes, Ry/au):

     atom    1 type  1   force =     0.00000000    0.00000000    0.00000000
     atom    2 type  2   force =     0.00000000    0.00000000    0.00000000
     atom    3 type  3   force =     0.00000000    0.00000000    0.00000000
     atom    4 type  4   force =     0.00000000    0.00000000    0.00000000

     Total force =     0.000000     Total SCF correction =     0.000000


     Computing stress (Cartesian axis) and pressure

          total   stress  (Ry/bohr**3)                   (kbar)     P=      -92.68
  -0.00059168  -0.00010273  -0.00021753          -87.04      -15.11      -32.00
  -0.00010273  -0.00047023  -0.00012659          -15.11      -69.17      -18.62
  -0.00021753  -0.00012659  -0.00082825          -32.00      -18.62     -121.84


     Writing all to output data dir /Users/omtailor/Quanutum_MS_Pipeline/data/dft_workflow/QUEUE-0003/qe_tmp/base/queue-0003.save/ :
     XML data file, charge density, pseudopotentials, collected wavefunctions

     init_run     :      0.36s CPU      0.39s WALL (       1 calls)
     electrons    :     11.06s CPU     11.59s WALL (       1 calls)
     forces       :      0.06s CPU      0.07s WALL (       1 calls)
     stress       :      0.41s CPU      0.47s WALL (       1 calls)

     Called by init_run:
     wfcinit      :      0.17s CPU      0.18s WALL (       1 calls)
     potinit      :      0.02s CPU      0.03s WALL (       1 calls)
     hinit0       :      0.12s CPU      0.13s WALL (       1 calls)

     Called by electrons:
     c_bands      :      7.96s CPU      8.29s WALL (      22 calls)
     sum_band     :      2.17s CPU      2.28s WALL (      22 calls)
     v_of_rho     :      0.31s CPU      0.33s WALL (      23 calls)
     newd         :      0.60s CPU      0.69s WALL (      23 calls)
     mix_rho      :      0.03s CPU      0.04s WALL (      22 calls)

     Called by c_bands:
     init_us_2    :      0.21s CPU      0.22s WALL (    1692 calls)
     cegterg      :      7.66s CPU      7.98s WALL (     792 calls)

     Called by *egterg:
     cdiaghg      :      0.20s CPU      0.20s WALL (    2163 calls)
     h_psi        :      6.77s CPU      6.93s WALL (    2199 calls)
     s_psi        :      0.14s CPU      0.17s WALL (    2199 calls)
     g_psi        :      0.02s CPU      0.02s WALL (    1371 calls)

     Called by h_psi:
     h_psi:calbec :      0.15s CPU      0.21s WALL (    2199 calls)
     vloc_psi     :      6.45s CPU      6.52s WALL (    2199 calls)
     add_vuspsi   :      0.14s CPU      0.17s WALL (    2199 calls)

     General routines
     calbec       :      0.25s CPU      0.37s WALL (    3603 calls)
     fft          :      0.15s CPU      0.15s WALL (     322 calls)
     ffts         :      0.01s CPU      0.01s WALL (      45 calls)
     fftw         :      6.50s CPU      6.55s WALL (   58690 calls)
     interpolate  :      0.02s CPU      0.02s WALL (      23 calls)

     Parallel routines

     PWSCF        :     12.21s CPU     12.91s WALL


   This run was terminated on:  21: 6:22  22Oct2025            

=------------------------------------------------------------------------------=
   JOB DONE.
=------------------------------------------------------------------------------=
